; benchmark generated from python API
(set-info :status unknown)
(declare-fun cell_1_1 () Int)
(declare-fun cell_1_2 () Int)
(declare-fun cell_1_3 () Int)
(declare-fun cell_1_4 () Int)
(declare-fun cell_1_5 () Int)
(declare-fun cell_1_6 () Int)
(declare-fun cell_1_7 () Int)
(declare-fun cell_2_1 () Int)
(declare-fun cell_3_1 () Int)
(declare-fun cell_4_1 () Int)
(declare-fun cell_5_1 () Int)
(declare-fun cell_6_1 () Int)
(declare-fun cell_7_1 () Int)
(declare-fun cell_8_1 () Int)
(declare-fun cell_9_1 () Int)
(declare-fun cell_2_2 () Int)
(declare-fun cell_3_2 () Int)
(declare-fun cell_4_2 () Int)
(declare-fun cell_5_2 () Int)
(declare-fun cell_6_2 () Int)
(declare-fun cell_7_2 () Int)
(declare-fun cell_8_2 () Int)
(declare-fun cell_9_2 () Int)
(declare-fun cell_2_3 () Int)
(declare-fun cell_3_3 () Int)
(declare-fun cell_4_3 () Int)
(declare-fun cell_5_3 () Int)
(declare-fun cell_6_3 () Int)
(declare-fun cell_7_3 () Int)
(declare-fun cell_8_3 () Int)
(declare-fun cell_9_3 () Int)
(declare-fun cell_2_4 () Int)
(declare-fun cell_3_4 () Int)
(declare-fun cell_4_4 () Int)
(declare-fun cell_5_4 () Int)
(declare-fun cell_6_4 () Int)
(declare-fun cell_7_4 () Int)
(declare-fun cell_8_4 () Int)
(declare-fun cell_9_4 () Int)
(declare-fun cell_2_5 () Int)
(declare-fun cell_3_5 () Int)
(declare-fun cell_4_5 () Int)
(declare-fun cell_5_5 () Int)
(declare-fun cell_6_5 () Int)
(declare-fun cell_7_5 () Int)
(declare-fun cell_8_5 () Int)
(declare-fun cell_9_5 () Int)
(declare-fun cell_2_6 () Int)
(declare-fun cell_3_6 () Int)
(declare-fun cell_4_6 () Int)
(declare-fun cell_5_6 () Int)
(declare-fun cell_6_6 () Int)
(declare-fun cell_7_6 () Int)
(declare-fun cell_8_6 () Int)
(declare-fun cell_9_6 () Int)
(declare-fun cell_2_7 () Int)
(declare-fun cell_3_7 () Int)
(declare-fun cell_4_7 () Int)
(declare-fun cell_5_7 () Int)
(declare-fun cell_6_7 () Int)
(declare-fun cell_7_7 () Int)
(declare-fun cell_8_7 () Int)
(declare-fun cell_9_7 () Int)
(declare-fun cell_1_8 () Int)
(declare-fun cell_2_8 () Int)
(declare-fun cell_3_8 () Int)
(declare-fun cell_4_8 () Int)
(declare-fun cell_5_8 () Int)
(declare-fun cell_6_8 () Int)
(declare-fun cell_7_8 () Int)
(declare-fun cell_8_8 () Int)
(declare-fun cell_9_8 () Int)
(declare-fun cell_1_9 () Int)
(declare-fun cell_2_9 () Int)
(declare-fun cell_3_9 () Int)
(declare-fun cell_4_9 () Int)
(declare-fun cell_5_9 () Int)
(declare-fun cell_6_9 () Int)
(declare-fun cell_7_9 () Int)
(declare-fun cell_8_9 () Int)
(declare-fun cell_9_9 () Int)
(assert
 (= cell_1_1 6))
(assert
 (= cell_1_2 2))
(assert
 (= cell_1_3 3))
(assert
 (= cell_1_4 1))
(assert
 (= cell_1_5 9))
(assert
 (= cell_1_6 7))
(assert
 (= cell_1_7 4))
(assert
 (let (($x9252 (= cell_1_1 6)))
 (or (= cell_1_1 1) (= cell_1_1 2) (= cell_1_1 3) (= cell_1_1 4) (= cell_1_1 5) $x9252 (= cell_1_1 7) (= cell_1_1 8) (= cell_1_1 9))))
(assert
 (let (($x462 (= cell_2_1 6)))
 (let (($x199 (= cell_2_1 3)))
 (let (($x8299 (= cell_2_1 2)))
 (or (= cell_2_1 1) $x8299 $x199 (= cell_2_1 4) (= cell_2_1 5) $x462 (= cell_2_1 7) (= cell_2_1 8) (= cell_2_1 9))))))
(assert
 (let (($x5304 (= cell_3_1 6)))
 (let (($x3179 (= cell_3_1 3)))
 (let (($x3436 (= cell_3_1 2)))
 (or (= cell_3_1 1) $x3436 $x3179 (= cell_3_1 4) (= cell_3_1 5) $x5304 (= cell_3_1 7) (= cell_3_1 8) (= cell_3_1 9))))))
(assert
 (let (($x4027 (= cell_4_1 6)))
 (or (= cell_4_1 1) (= cell_4_1 2) (= cell_4_1 3) (= cell_4_1 4) (= cell_4_1 5) $x4027 (= cell_4_1 7) (= cell_4_1 8) (= cell_4_1 9))))
(assert
 (let (($x1493 (= cell_5_1 6)))
 (or (= cell_5_1 1) (= cell_5_1 2) (= cell_5_1 3) (= cell_5_1 4) (= cell_5_1 5) $x1493 (= cell_5_1 7) (= cell_5_1 8) (= cell_5_1 9))))
(assert
 (let (($x1215 (= cell_6_1 6)))
 (or (= cell_6_1 1) (= cell_6_1 2) (= cell_6_1 3) (= cell_6_1 4) (= cell_6_1 5) $x1215 (= cell_6_1 7) (= cell_6_1 8) (= cell_6_1 9))))
(assert
 (let (($x4987 (= cell_7_1 6)))
 (or (= cell_7_1 1) (= cell_7_1 2) (= cell_7_1 3) (= cell_7_1 4) (= cell_7_1 5) $x4987 (= cell_7_1 7) (= cell_7_1 8) (= cell_7_1 9))))
(assert
 (let (($x2903 (= cell_8_1 6)))
 (or (= cell_8_1 1) (= cell_8_1 2) (= cell_8_1 3) (= cell_8_1 4) (= cell_8_1 5) $x2903 (= cell_8_1 7) (= cell_8_1 8) (= cell_8_1 9))))
(assert
 (let (($x2679 (= cell_9_1 6)))
 (or (= cell_9_1 1) (= cell_9_1 2) (= cell_9_1 3) (= cell_9_1 4) (= cell_9_1 5) $x2679 (= cell_9_1 7) (= cell_9_1 8) (= cell_9_1 9))))
(assert
 (let (($x704 (= cell_1_2 2)))
 (or (= cell_1_2 1) $x704 (= cell_1_2 3) (= cell_1_2 4) (= cell_1_2 5) (= cell_1_2 6) (= cell_1_2 7) (= cell_1_2 8) (= cell_1_2 9))))
(assert
 (let (($x4889 (= cell_2_2 6)))
 (let (($x1220 (= cell_2_2 3)))
 (let (($x442 (= cell_2_2 2)))
 (or (= cell_2_2 1) $x442 $x1220 (= cell_2_2 4) (= cell_2_2 5) $x4889 (= cell_2_2 7) (= cell_2_2 8) (= cell_2_2 9))))))
(assert
 (let (($x1590 (= cell_3_2 6)))
 (let (($x1857 (= cell_3_2 3)))
 (let (($x105 (= cell_3_2 2)))
 (or (= cell_3_2 1) $x105 $x1857 (= cell_3_2 4) (= cell_3_2 5) $x1590 (= cell_3_2 7) (= cell_3_2 8) (= cell_3_2 9))))))
(assert
 (let (($x2073 (= cell_4_2 9)))
 (let (($x1535 (= cell_4_2 2)))
 (or (= cell_4_2 1) $x1535 (= cell_4_2 3) (= cell_4_2 4) (= cell_4_2 5) (= cell_4_2 6) (= cell_4_2 7) (= cell_4_2 8) $x2073))))
(assert
 (let (($x403 (= cell_5_2 2)))
 (or (= cell_5_2 1) $x403 (= cell_5_2 3) (= cell_5_2 4) (= cell_5_2 5) (= cell_5_2 6) (= cell_5_2 7) (= cell_5_2 8) (= cell_5_2 9))))
(assert
 (let (($x2540 (= cell_6_2 2)))
 (or (= cell_6_2 1) $x2540 (= cell_6_2 3) (= cell_6_2 4) (= cell_6_2 5) (= cell_6_2 6) (= cell_6_2 7) (= cell_6_2 8) (= cell_6_2 9))))
(assert
 (let (($x9023 (= cell_7_2 2)))
 (or (= cell_7_2 1) $x9023 (= cell_7_2 3) (= cell_7_2 4) (= cell_7_2 5) (= cell_7_2 6) (= cell_7_2 7) (= cell_7_2 8) (= cell_7_2 9))))
(assert
 (let (($x1714 (= cell_8_2 2)))
 (or (= cell_8_2 1) $x1714 (= cell_8_2 3) (= cell_8_2 4) (= cell_8_2 5) (= cell_8_2 6) (= cell_8_2 7) (= cell_8_2 8) (= cell_8_2 9))))
(assert
 (let (($x1272 (= cell_9_2 2)))
 (or (= cell_9_2 1) $x1272 (= cell_9_2 3) (= cell_9_2 4) (= cell_9_2 5) (= cell_9_2 6) (= cell_9_2 7) (= cell_9_2 8) (= cell_9_2 9))))
(assert
 (let (($x1264 (= cell_1_3 3)))
 (or (= cell_1_3 1) (= cell_1_3 2) $x1264 (= cell_1_3 4) (= cell_1_3 5) (= cell_1_3 6) (= cell_1_3 7) (= cell_1_3 8) (= cell_1_3 9))))
(assert
 (let (($x3399 (= cell_2_3 6)))
 (let (($x4056 (= cell_2_3 3)))
 (let (($x2412 (= cell_2_3 2)))
 (or (= cell_2_3 1) $x2412 $x4056 (= cell_2_3 4) (= cell_2_3 5) $x3399 (= cell_2_3 7) (= cell_2_3 8) (= cell_2_3 9))))))
(assert
 (let (($x6719 (= cell_3_3 9)))
 (let (($x3428 (= cell_3_3 6)))
 (let (($x6101 (= cell_3_3 3)))
 (let (($x902 (= cell_3_3 2)))
 (or (= cell_3_3 1) $x902 $x6101 (= cell_3_3 4) (= cell_3_3 5) $x3428 (= cell_3_3 7) (= cell_3_3 8) $x6719))))))
(assert
 (let (($x421 (= cell_4_3 3)))
 (or (= cell_4_3 1) (= cell_4_3 2) $x421 (= cell_4_3 4) (= cell_4_3 5) (= cell_4_3 6) (= cell_4_3 7) (= cell_4_3 8) (= cell_4_3 9))))
(assert
 (let (($x766 (= cell_5_3 3)))
 (or (= cell_5_3 1) (= cell_5_3 2) $x766 (= cell_5_3 4) (= cell_5_3 5) (= cell_5_3 6) (= cell_5_3 7) (= cell_5_3 8) (= cell_5_3 9))))
(assert
 (let (($x3323 (= cell_6_3 3)))
 (or (= cell_6_3 1) (= cell_6_3 2) $x3323 (= cell_6_3 4) (= cell_6_3 5) (= cell_6_3 6) (= cell_6_3 7) (= cell_6_3 8) (= cell_6_3 9))))
(assert
 (let (($x6262 (= cell_7_3 3)))
 (or (= cell_7_3 1) (= cell_7_3 2) $x6262 (= cell_7_3 4) (= cell_7_3 5) (= cell_7_3 6) (= cell_7_3 7) (= cell_7_3 8) (= cell_7_3 9))))
(assert
 (let (($x6 (= cell_8_3 3)))
 (or (= cell_8_3 1) (= cell_8_3 2) $x6 (= cell_8_3 4) (= cell_8_3 5) (= cell_8_3 6) (= cell_8_3 7) (= cell_8_3 8) (= cell_8_3 9))))
(assert
 (let (($x910 (= cell_9_3 3)))
 (or (= cell_9_3 1) (= cell_9_3 2) $x910 (= cell_9_3 4) (= cell_9_3 5) (= cell_9_3 6) (= cell_9_3 7) (= cell_9_3 8) (= cell_9_3 9))))
(assert
 (let (($x469 (= cell_1_4 1)))
 (or $x469 (= cell_1_4 2) (= cell_1_4 3) (= cell_1_4 4) (= cell_1_4 5) (= cell_1_4 6) (= cell_1_4 7) (= cell_1_4 8) (= cell_1_4 9))))
(assert
 (let (($x2070 (= cell_2_4 9)))
 (let (($x5802 (= cell_2_4 7)))
 (let (($x6926 (= cell_2_4 1)))
 (or $x6926 (= cell_2_4 2) (= cell_2_4 3) (= cell_2_4 4) (= cell_2_4 5) (= cell_2_4 6) $x5802 (= cell_2_4 8) $x2070)))))
(assert
 (let (($x12 (= cell_3_4 9)))
 (let (($x8725 (= cell_3_4 7)))
 (let (($x4560 (= cell_3_4 2)))
 (let (($x631 (= cell_3_4 1)))
 (or $x631 $x4560 (= cell_3_4 3) (= cell_3_4 4) (= cell_3_4 5) (= cell_3_4 6) $x8725 (= cell_3_4 8) $x12))))))
(assert
 (let (($x1285 (= cell_4_4 1)))
 (or $x1285 (= cell_4_4 2) (= cell_4_4 3) (= cell_4_4 4) (= cell_4_4 5) (= cell_4_4 6) (= cell_4_4 7) (= cell_4_4 8) (= cell_4_4 9))))
(assert
 (let (($x7552 (= cell_5_4 1)))
 (or $x7552 (= cell_5_4 2) (= cell_5_4 3) (= cell_5_4 4) (= cell_5_4 5) (= cell_5_4 6) (= cell_5_4 7) (= cell_5_4 8) (= cell_5_4 9))))
(assert
 (let (($x2842 (= cell_6_4 1)))
 (or $x2842 (= cell_6_4 2) (= cell_6_4 3) (= cell_6_4 4) (= cell_6_4 5) (= cell_6_4 6) (= cell_6_4 7) (= cell_6_4 8) (= cell_6_4 9))))
(assert
 (let (($x2997 (= cell_7_4 1)))
 (or $x2997 (= cell_7_4 2) (= cell_7_4 3) (= cell_7_4 4) (= cell_7_4 5) (= cell_7_4 6) (= cell_7_4 7) (= cell_7_4 8) (= cell_7_4 9))))
(assert
 (let (($x4581 (= cell_8_4 1)))
 (or $x4581 (= cell_8_4 2) (= cell_8_4 3) (= cell_8_4 4) (= cell_8_4 5) (= cell_8_4 6) (= cell_8_4 7) (= cell_8_4 8) (= cell_8_4 9))))
(assert
 (let (($x1574 (= cell_9_4 1)))
 (or $x1574 (= cell_9_4 2) (= cell_9_4 3) (= cell_9_4 4) (= cell_9_4 5) (= cell_9_4 6) (= cell_9_4 7) (= cell_9_4 8) (= cell_9_4 9))))
(assert
 (let (($x3585 (= cell_1_5 9)))
 (or (= cell_1_5 1) (= cell_1_5 2) (= cell_1_5 3) (= cell_1_5 4) (= cell_1_5 5) (= cell_1_5 6) (= cell_1_5 7) (= cell_1_5 8) $x3585)))
(assert
 (let (($x9751 (= cell_2_5 9)))
 (let (($x557 (= cell_2_5 7)))
 (let (($x413 (= cell_2_5 1)))
 (or $x413 (= cell_2_5 2) (= cell_2_5 3) (= cell_2_5 4) (= cell_2_5 5) (= cell_2_5 6) $x557 (= cell_2_5 8) $x9751)))))
(assert
 (let (($x4152 (= cell_3_5 9)))
 (let (($x1970 (= cell_3_5 7)))
 (let (($x1709 (= cell_3_5 1)))
 (or $x1709 (= cell_3_5 2) (= cell_3_5 3) (= cell_3_5 4) (= cell_3_5 5) (= cell_3_5 6) $x1970 (= cell_3_5 8) $x4152)))))
(assert
 (let (($x969 (= cell_4_5 9)))
 (let (($x1194 (= cell_4_5 2)))
 (or (= cell_4_5 1) $x1194 (= cell_4_5 3) (= cell_4_5 4) (= cell_4_5 5) (= cell_4_5 6) (= cell_4_5 7) (= cell_4_5 8) $x969))))
(assert
 (let (($x597 (= cell_5_5 9)))
 (or (= cell_5_5 1) (= cell_5_5 2) (= cell_5_5 3) (= cell_5_5 4) (= cell_5_5 5) (= cell_5_5 6) (= cell_5_5 7) (= cell_5_5 8) $x597)))
(assert
 (let (($x5745 (= cell_6_5 9)))
 (or (= cell_6_5 1) (= cell_6_5 2) (= cell_6_5 3) (= cell_6_5 4) (= cell_6_5 5) (= cell_6_5 6) (= cell_6_5 7) (= cell_6_5 8) $x5745)))
(assert
 (let (($x332 (= cell_7_5 9)))
 (or (= cell_7_5 1) (= cell_7_5 2) (= cell_7_5 3) (= cell_7_5 4) (= cell_7_5 5) (= cell_7_5 6) (= cell_7_5 7) (= cell_7_5 8) $x332)))
(assert
 (let (($x8197 (= cell_8_5 9)))
 (or (= cell_8_5 1) (= cell_8_5 2) (= cell_8_5 3) (= cell_8_5 4) (= cell_8_5 5) (= cell_8_5 6) (= cell_8_5 7) (= cell_8_5 8) $x8197)))
(assert
 (let (($x33 (= cell_9_5 9)))
 (or (= cell_9_5 1) (= cell_9_5 2) (= cell_9_5 3) (= cell_9_5 4) (= cell_9_5 5) (= cell_9_5 6) (= cell_9_5 7) (= cell_9_5 8) $x33)))
(assert
 (let (($x7098 (= cell_1_6 7)))
 (or (= cell_1_6 1) (= cell_1_6 2) (= cell_1_6 3) (= cell_1_6 4) (= cell_1_6 5) (= cell_1_6 6) $x7098 (= cell_1_6 8) (= cell_1_6 9))))
(assert
 (let (($x1558 (= cell_2_6 9)))
 (let (($x8869 (= cell_2_6 7)))
 (let (($x8205 (= cell_2_6 1)))
 (or $x8205 (= cell_2_6 2) (= cell_2_6 3) (= cell_2_6 4) (= cell_2_6 5) (= cell_2_6 6) $x8869 (= cell_2_6 8) $x1558)))))
(assert
 (let (($x1433 (= cell_3_6 9)))
 (let (($x178 (= cell_3_6 7)))
 (let (($x4592 (= cell_3_6 1)))
 (or $x4592 (= cell_3_6 2) (= cell_3_6 3) (= cell_3_6 4) (= cell_3_6 5) (= cell_3_6 6) $x178 (= cell_3_6 8) $x1433)))))
(assert
 (let (($x1994 (= cell_4_6 7)))
 (or (= cell_4_6 1) (= cell_4_6 2) (= cell_4_6 3) (= cell_4_6 4) (= cell_4_6 5) (= cell_4_6 6) $x1994 (= cell_4_6 8) (= cell_4_6 9))))
(assert
 (let (($x7588 (= cell_5_6 7)))
 (let (($x8079 (= cell_5_6 2)))
 (or (= cell_5_6 1) $x8079 (= cell_5_6 3) (= cell_5_6 4) (= cell_5_6 5) (= cell_5_6 6) $x7588 (= cell_5_6 8) (= cell_5_6 9)))))
(assert
 (let (($x1828 (= cell_6_6 7)))
 (or (= cell_6_6 1) (= cell_6_6 2) (= cell_6_6 3) (= cell_6_6 4) (= cell_6_6 5) (= cell_6_6 6) $x1828 (= cell_6_6 8) (= cell_6_6 9))))
(assert
 (let (($x8330 (= cell_7_6 7)))
 (or (= cell_7_6 1) (= cell_7_6 2) (= cell_7_6 3) (= cell_7_6 4) (= cell_7_6 5) (= cell_7_6 6) $x8330 (= cell_7_6 8) (= cell_7_6 9))))
(assert
 (let (($x2703 (= cell_8_6 7)))
 (or (= cell_8_6 1) (= cell_8_6 2) (= cell_8_6 3) (= cell_8_6 4) (= cell_8_6 5) (= cell_8_6 6) $x2703 (= cell_8_6 8) (= cell_8_6 9))))
(assert
 (let (($x2004 (= cell_9_6 7)))
 (or (= cell_9_6 1) (= cell_9_6 2) (= cell_9_6 3) (= cell_9_6 4) (= cell_9_6 5) (= cell_9_6 6) $x2004 (= cell_9_6 8) (= cell_9_6 9))))
(assert
 (let (($x1107 (= cell_1_7 4)))
 (or (= cell_1_7 1) (= cell_1_7 2) (= cell_1_7 3) $x1107 (= cell_1_7 5) (= cell_1_7 6) (= cell_1_7 7) (= cell_1_7 8) (= cell_1_7 9))))
(assert
 (let (($x7484 (= cell_2_7 4)))
 (or (= cell_2_7 1) (= cell_2_7 2) (= cell_2_7 3) $x7484 (= cell_2_7 5) (= cell_2_7 6) (= cell_2_7 7) (= cell_2_7 8) (= cell_2_7 9))))
(assert
 (let (($x4989 (= cell_3_7 9)))
 (let (($x3158 (= cell_3_7 4)))
 (or (= cell_3_7 1) (= cell_3_7 2) (= cell_3_7 3) $x3158 (= cell_3_7 5) (= cell_3_7 6) (= cell_3_7 7) (= cell_3_7 8) $x4989))))
(assert
 (let (($x577 (= cell_4_7 4)))
 (or (= cell_4_7 1) (= cell_4_7 2) (= cell_4_7 3) $x577 (= cell_4_7 5) (= cell_4_7 6) (= cell_4_7 7) (= cell_4_7 8) (= cell_4_7 9))))
(assert
 (let (($x5406 (= cell_5_7 4)))
 (or (= cell_5_7 1) (= cell_5_7 2) (= cell_5_7 3) $x5406 (= cell_5_7 5) (= cell_5_7 6) (= cell_5_7 7) (= cell_5_7 8) (= cell_5_7 9))))
(assert
 (let (($x8265 (= cell_6_7 4)))
 (let (($x2556 (= cell_6_7 2)))
 (or (= cell_6_7 1) $x2556 (= cell_6_7 3) $x8265 (= cell_6_7 5) (= cell_6_7 6) (= cell_6_7 7) (= cell_6_7 8) (= cell_6_7 9)))))
(assert
 (let (($x3058 (= cell_7_7 4)))
 (or (= cell_7_7 1) (= cell_7_7 2) (= cell_7_7 3) $x3058 (= cell_7_7 5) (= cell_7_7 6) (= cell_7_7 7) (= cell_7_7 8) (= cell_7_7 9))))
(assert
 (let (($x7221 (= cell_8_7 4)))
 (or (= cell_8_7 1) (= cell_8_7 2) (= cell_8_7 3) $x7221 (= cell_8_7 5) (= cell_8_7 6) (= cell_8_7 7) (= cell_8_7 8) (= cell_8_7 9))))
(assert
 (let (($x428 (= cell_9_7 4)))
 (or (= cell_9_7 1) (= cell_9_7 2) (= cell_9_7 3) $x428 (= cell_9_7 5) (= cell_9_7 6) (= cell_9_7 7) (= cell_9_7 8) (= cell_9_7 9))))
(assert
 (let (($x9300 (= cell_1_8 9)))
 (let (($x5462 (= cell_1_8 8)))
 (let (($x7145 (= cell_1_8 7)))
 (let (($x1525 (= cell_1_8 6)))
 (let (($x8716 (= cell_1_8 4)))
 (let (($x2097 (= cell_1_8 3)))
 (let (($x1707 (= cell_1_8 2)))
 (let (($x9912 (= cell_1_8 1)))
 (or $x9912 $x1707 $x2097 $x8716 (= cell_1_8 5) $x1525 $x7145 $x5462 $x9300))))))))))
(assert
 (let (($x6241 (= cell_2_8 4)))
 (or (= cell_2_8 1) (= cell_2_8 2) (= cell_2_8 3) $x6241 (= cell_2_8 5) (= cell_2_8 6) (= cell_2_8 7) (= cell_2_8 8) (= cell_2_8 9))))
(assert
 (let (($x1844 (= cell_3_8 4)))
 (or (= cell_3_8 1) (= cell_3_8 2) (= cell_3_8 3) $x1844 (= cell_3_8 5) (= cell_3_8 6) (= cell_3_8 7) (= cell_3_8 8) (= cell_3_8 9))))
(assert
 (let (($x70 (= cell_4_8 9)))
 (or (= cell_4_8 1) (= cell_4_8 2) (= cell_4_8 3) (= cell_4_8 4) (= cell_4_8 5) (= cell_4_8 6) (= cell_4_8 7) (= cell_4_8 8) $x70)))
(assert
 (or (= cell_5_8 1) (= cell_5_8 2) (= cell_5_8 3) (= cell_5_8 4) (= cell_5_8 5) (= cell_5_8 6) (= cell_5_8 7) (= cell_5_8 8) (= cell_5_8 9)))
(assert
 (or (= cell_6_8 1) (= cell_6_8 2) (= cell_6_8 3) (= cell_6_8 4) (= cell_6_8 5) (= cell_6_8 6) (= cell_6_8 7) (= cell_6_8 8) (= cell_6_8 9)))
(assert
 (let (($x7630 (= cell_7_8 2)))
 (or (= cell_7_8 1) $x7630 (= cell_7_8 3) (= cell_7_8 4) (= cell_7_8 5) (= cell_7_8 6) (= cell_7_8 7) (= cell_7_8 8) (= cell_7_8 9))))
(assert
 (or (= cell_8_8 1) (= cell_8_8 2) (= cell_8_8 3) (= cell_8_8 4) (= cell_8_8 5) (= cell_8_8 6) (= cell_8_8 7) (= cell_8_8 8) (= cell_8_8 9)))
(assert
 (or (= cell_9_8 1) (= cell_9_8 2) (= cell_9_8 3) (= cell_9_8 4) (= cell_9_8 5) (= cell_9_8 6) (= cell_9_8 7) (= cell_9_8 8) (= cell_9_8 9)))
(assert
 (let (($x1594 (= cell_1_9 9)))
 (let (($x1308 (= cell_1_9 7)))
 (let (($x4122 (= cell_1_9 6)))
 (let (($x2607 (= cell_1_9 4)))
 (let (($x1276 (= cell_1_9 3)))
 (let (($x87 (= cell_1_9 2)))
 (let (($x8425 (= cell_1_9 1)))
 (or $x8425 $x87 $x1276 $x2607 (= cell_1_9 5) $x4122 $x1308 (= cell_1_9 8) $x1594)))))))))
(assert
 (let (($x6960 (= cell_2_9 4)))
 (or (= cell_2_9 1) (= cell_2_9 2) (= cell_2_9 3) $x6960 (= cell_2_9 5) (= cell_2_9 6) (= cell_2_9 7) (= cell_2_9 8) (= cell_2_9 9))))
(assert
 (let (($x2805 (= cell_3_9 4)))
 (or (= cell_3_9 1) (= cell_3_9 2) (= cell_3_9 3) $x2805 (= cell_3_9 5) (= cell_3_9 6) (= cell_3_9 7) (= cell_3_9 8) (= cell_3_9 9))))
(assert
 (or (= cell_4_9 1) (= cell_4_9 2) (= cell_4_9 3) (= cell_4_9 4) (= cell_4_9 5) (= cell_4_9 6) (= cell_4_9 7) (= cell_4_9 8) (= cell_4_9 9)))
(assert
 (or (= cell_5_9 1) (= cell_5_9 2) (= cell_5_9 3) (= cell_5_9 4) (= cell_5_9 5) (= cell_5_9 6) (= cell_5_9 7) (= cell_5_9 8) (= cell_5_9 9)))
(assert
 (or (= cell_6_9 1) (= cell_6_9 2) (= cell_6_9 3) (= cell_6_9 4) (= cell_6_9 5) (= cell_6_9 6) (= cell_6_9 7) (= cell_6_9 8) (= cell_6_9 9)))
(assert
 (or (= cell_7_9 1) (= cell_7_9 2) (= cell_7_9 3) (= cell_7_9 4) (= cell_7_9 5) (= cell_7_9 6) (= cell_7_9 7) (= cell_7_9 8) (= cell_7_9 9)))
(assert
 (let (($x2361 (= cell_8_9 2)))
 (or (= cell_8_9 1) $x2361 (= cell_8_9 3) (= cell_8_9 4) (= cell_8_9 5) (= cell_8_9 6) (= cell_8_9 7) (= cell_8_9 8) (= cell_8_9 9))))
(assert
 (or (= cell_9_9 1) (= cell_9_9 2) (= cell_9_9 3) (= cell_9_9 4) (= cell_9_9 5) (= cell_9_9 6) (= cell_9_9 7) (= cell_9_9 8) (= cell_9_9 9)))
(assert
 (and (distinct cell_1_1 cell_1_2 cell_1_3 cell_1_4 cell_1_5 cell_1_6 cell_1_7 cell_1_8 cell_1_9) true))
(assert
 (and (distinct cell_2_1 cell_2_2 cell_2_3 cell_2_4 cell_2_5 cell_2_6 cell_2_7 cell_2_8 cell_2_9) true))
(assert
 (and (distinct cell_3_1 cell_3_2 cell_3_3 cell_3_4 cell_3_5 cell_3_6 cell_3_7 cell_3_8 cell_3_9) true))
(assert
 (and (distinct cell_4_1 cell_4_2 cell_4_3 cell_4_4 cell_4_5 cell_4_6 cell_4_7 cell_4_8 cell_4_9) true))
(assert
 (and (distinct cell_5_1 cell_5_2 cell_5_3 cell_5_4 cell_5_5 cell_5_6 cell_5_7 cell_5_8 cell_5_9) true))
(assert
 (and (distinct cell_6_1 cell_6_2 cell_6_3 cell_6_4 cell_6_5 cell_6_6 cell_6_7 cell_6_8 cell_6_9) true))
(assert
 (and (distinct cell_7_1 cell_7_2 cell_7_3 cell_7_4 cell_7_5 cell_7_6 cell_7_7 cell_7_8 cell_7_9) true))
(assert
 (and (distinct cell_8_1 cell_8_2 cell_8_3 cell_8_4 cell_8_5 cell_8_6 cell_8_7 cell_8_8 cell_8_9) true))
(assert
 (and (distinct cell_9_1 cell_9_2 cell_9_3 cell_9_4 cell_9_5 cell_9_6 cell_9_7 cell_9_8 cell_9_9) true))
(assert
 (and (distinct cell_1_1 cell_2_1 cell_3_1 cell_4_1 cell_5_1 cell_6_1 cell_7_1 cell_8_1 cell_9_1) true))
(assert
 (and (distinct cell_1_2 cell_2_2 cell_3_2 cell_4_2 cell_5_2 cell_6_2 cell_7_2 cell_8_2 cell_9_2) true))
(assert
 (and (distinct cell_1_3 cell_2_3 cell_3_3 cell_4_3 cell_5_3 cell_6_3 cell_7_3 cell_8_3 cell_9_3) true))
(assert
 (and (distinct cell_1_4 cell_2_4 cell_3_4 cell_4_4 cell_5_4 cell_6_4 cell_7_4 cell_8_4 cell_9_4) true))
(assert
 (and (distinct cell_1_5 cell_2_5 cell_3_5 cell_4_5 cell_5_5 cell_6_5 cell_7_5 cell_8_5 cell_9_5) true))
(assert
 (and (distinct cell_1_6 cell_2_6 cell_3_6 cell_4_6 cell_5_6 cell_6_6 cell_7_6 cell_8_6 cell_9_6) true))
(assert
 (and (distinct cell_1_7 cell_2_7 cell_3_7 cell_4_7 cell_5_7 cell_6_7 cell_7_7 cell_8_7 cell_9_7) true))
(assert
 (and (distinct cell_1_8 cell_2_8 cell_3_8 cell_4_8 cell_5_8 cell_6_8 cell_7_8 cell_8_8 cell_9_8) true))
(assert
 (and (distinct cell_1_9 cell_2_9 cell_3_9 cell_4_9 cell_5_9 cell_6_9 cell_7_9 cell_8_9 cell_9_9) true))
(assert
 (and (distinct cell_1_1 cell_1_2 cell_1_3 cell_2_1 cell_2_2 cell_2_3 cell_3_1 cell_3_2 cell_3_3) true))
(assert
 (and (distinct cell_1_4 cell_1_5 cell_1_6 cell_2_4 cell_2_5 cell_2_6 cell_3_4 cell_3_5 cell_3_6) true))
(assert
 (and (distinct cell_1_7 cell_1_8 cell_1_9 cell_2_7 cell_2_8 cell_2_9 cell_3_7 cell_3_8 cell_3_9) true))
(assert
 (and (distinct cell_4_1 cell_4_2 cell_4_3 cell_5_1 cell_5_2 cell_5_3 cell_6_1 cell_6_2 cell_6_3) true))
(assert
 (and (distinct cell_4_4 cell_4_5 cell_4_6 cell_5_4 cell_5_5 cell_5_6 cell_6_4 cell_6_5 cell_6_6) true))
(assert
 (and (distinct cell_4_7 cell_4_8 cell_4_9 cell_5_7 cell_5_8 cell_5_9 cell_6_7 cell_6_8 cell_6_9) true))
(assert
 (and (distinct cell_7_1 cell_7_2 cell_7_3 cell_8_1 cell_8_2 cell_8_3 cell_9_1 cell_9_2 cell_9_3) true))
(assert
 (and (distinct cell_7_4 cell_7_5 cell_7_6 cell_8_4 cell_8_5 cell_8_6 cell_9_4 cell_9_5 cell_9_6) true))
(assert
 (and (distinct cell_7_7 cell_7_8 cell_7_9 cell_8_7 cell_8_8 cell_8_9 cell_9_7 cell_9_8 cell_9_9) true))
(assert
 (let (($x641 (and (distinct cell_5_9 cell_6_8 cell_7_7 cell_8_6) true)))
 (let (($x3229 (and (distinct cell_2_9 cell_3_8 cell_4_7 cell_5_6 cell_6_5 cell_7_4 cell_8_3 cell_9_2) true)))
 (let (($x352 (and (distinct cell_1_8 cell_2_7 cell_3_6 cell_4_5 cell_5_4 cell_6_3 cell_7_2 cell_8_1) true)))
 (let (($x458 (and (distinct cell_1_5 cell_2_4 cell_3_3 cell_4_2) true)))
 (let (($x901 (and (distinct cell_5_1 cell_6_2 cell_7_3 cell_8_4) true)))
 (let (($x909 (and (distinct cell_2_1 cell_3_2 cell_4_3 cell_5_4 cell_6_5 cell_7_6 cell_8_7 cell_9_8) true)))
 (let (($x4728 (and (distinct cell_1_2 cell_2_3 cell_3_4 cell_4_5 cell_5_6 cell_6_7 cell_7_8 cell_8_9) true)))
 (let (($x2322 (and (distinct cell_1_5 cell_2_6 cell_3_7 cell_4_8) true)))
 (and $x2322 $x4728 $x909 $x901 $x458 $x352 $x3229 $x641))))))))))
(assert
 (= cell_1_8 8))
(check-sat)
